40
528
20
88
77
53
74
6
42
2
22
94
75
53
19
95
41
4
3
8
49
6
95
0 1
0 2
0 3
0 4
0 7
0 10
0 12
0 13
0 15
0 16
0 18
0 20
0 21
0 22
0 23
0 25
0 27
0 28
0 29
0 31
0 33
0 34
0 36
0 38
0 39
1 2
1 4
1 5
1 6
1 7
1 8
1 10
1 11
1 13
1 14
1 15
1 16
1 17
1 18
1 19
1 20
1 21
1 22
1 24
1 26
1 27
1 29
1 30
1 31
1 33
1 34
1 37
1 38
1 39
2 3
2 7
2 8
2 9
2 10
2 13
2 14
2 16
2 17
2 18
2 19
2 20
2 21
2 22
2 24
2 27
2 28
2 29
2 30
2 31
2 32
2 33
2 34
2 36
3 4
3 5
3 6
3 7
3 10
3 11
3 12
3 13
3 14
3 16
3 17
3 18
3 20
3 21
3 22
3 23
3 24
3 27
3 28
3 29
3 30
3 31
3 32
3 33
3 34
3 35
3 36
3 37
3 38
4 5
4 6
4 7
4 8
4 10
4 11
4 12
4 13
4 14
4 15
4 16
4 17
4 19
4 20
4 22
4 23
4 24
4 25
4 27
4 28
4 29
4 31
4 32
4 35
4 36
4 37
4 38
4 39
5 7
5 8
5 10
5 11
5 12
5 13
5 15
5 17
5 18
5 20
5 24
5 25
5 27
5 28
5 29
5 30
5 31
5 32
5 33
5 37
5 38
6 7
6 9
6 11
6 12
6 14
6 18
6 20
6 22
6 24
6 26
6 31
6 36
6 37
6 39
7 9
7 11
7 14
7 15
7 16
7 18
7 19
7 20
7 21
7 22
7 23
7 24
7 25
7 27
7 28
7 30
7 33
7 34
7 35
7 36
7 38
7 39
8 9
8 10
8 11
8 12
8 13
8 14
8 15
8 16
8 18
8 20
8 21
8 22
8 23
8 24
8 26
8 27
8 28
8 30
8 32
8 35
8 36
8 37
8 38
8 39
9 10
9 12
9 13
9 15
9 17
9 18
9 19
9 20
9 22
9 24
9 25
9 26
9 28
9 29
9 30
9 31
9 32
9 33
9 34
9 35
9 36
9 37
9 38
10 11
10 15
10 16
10 17
10 18
10 19
10 20
10 21
10 22
10 25
10 26
10 28
10 29
10 32
10 33
10 34
10 35
10 38
10 39
11 12
11 13
11 14
11 15
11 17
11 19
11 20
11 21
11 22
11 23
11 25
11 26
11 27
11 28
11 29
11 31
11 35
11 36
11 39
12 13
12 14
12 15
12 16
12 17
12 19
12 20
12 21
12 22
12 24
12 26
12 27
12 28
12 30
12 31
12 32
12 34
12 35
12 36
12 37
12 38
13 14
13 15
13 16
13 19
13 21
13 22
13 25
13 26
13 27
13 28
13 29
13 32
13 33
13 34
13 35
13 36
13 38
14 15
14 16
14 17
14 18
14 23
14 26
14 27
14 28
14 29
14 30
14 32
14 33
14 36
14 37
14 38
14 39
15 16
15 18
15 21
15 22
15 23
15 24
15 26
15 27
15 28
15 29
15 31
15 34
15 35
15 36
15 37
15 38
16 17
16 18
16 19
16 20
16 21
16 23
16 25
16 26
16 28
16 29
16 31
16 33
16 34
16 35
16 37
16 38
17 19
17 21
17 23
17 24
17 25
17 26
17 28
17 29
17 33
17 34
17 35
17 37
17 38
18 19
18 21
18 23
18 25
18 26
18 29
18 30
18 31
18 33
18 35
18 38
18 39
19 24
19 26
19 27
19 28
19 29
19 30
19 32
19 34
19 35
19 36
19 37
19 38
20 21
20 23
20 24
20 25
20 26
20 27
20 28
20 32
20 36
20 37
20 38
20 39
21 24
21 25
21 27
21 29
21 30
21 31
21 33
21 34
21 35
21 36
21 39
22 23
22 25
22 26
22 28
22 31
22 34
22 35
22 36
22 39
23 24
23 25
23 26
23 27
23 28
23 30
23 31
23 34
23 35
23 36
23 39
24 25
24 27
24 29
24 30
24 31
24 32
24 33
24 34
24 35
24 36
24 37
24 39
25 26
25 27
25 30
25 32
25 34
25 35
25 36
25 37
25 39
26 28
26 30
26 34
26 35
26 36
26 38
26 39
27 28
27 29
27 30
27 31
27 32
27 35
27 36
27 38
27 39
28 32
28 34
28 35
28 36
28 37
28 38
28 39
29 30
29 31
29 32
29 33
29 34
29 35
29 38
29 39
30 31
30 33
30 35
30 36
30 37
30 39
31 32
31 34
31 35
31 36
31 37
31 38
32 34
32 36
32 37
32 38
32 39
33 35
33 36
33 37
33 38
33 39
34 35
34 37
34 38
35 36
35 37
35 38
36 37
36 38
36 39
37 38
37 39
23 28
9 39
35 0
7 15
33 30
24 20
2 17
1 11
6 32
21 38
12 13
34 3
14 29
10 27
8 19
5 25
26 31
16 22
4 36
18 37
